c FILE /home/rafael/Documents/HappySet/MIHS/inputs/happygen/output/graph_d_regular_k5_p0.5_v100_20241127_084050.txt
c SOURCE This is a d-regular graph formed for the happy graph colouring problem.
c DESCRIPTION It was generated using the problem generator of Rhyd Lewis
c
c GRAPH STATS
c Seed                             = 1972642599
c Number of Nodes                  = 100
c Number of colours k              = 5
c Number of pre-assignments        = 50
c Degree of all vertices           = 6
c Density                          = 0.0606061
c 
c The degrees of nodes 1 to 100, respectively, are as follows 
c [6, 6, 6, 6, 6, 6, 6, 6, 6, 6, 6, 6, 6, 6, 6, 6, 6, 6, 6, 6, 6, 6, 6, 6, 6, 6, 
c  6, 6, 6, 6, 6, 6, 6, 6, 6, 6, 6, 6, 6, 6, 6, 6, 6, 6, 6, 6, 6, 6, 6, 6, 6, 
c  6, 6, 6, 6, 6, 6, 6, 6, 6, 6, 6, 6, 6, 6, 6, 6, 6, 6, 6, 6, 6, 6, 6, 6, 6, 
c  6, 6, 6, 6, 6, 6, 6, 6, 6, 6, 6, 6, 6, 6, 6, 6, 6, 6, 6, 6, 6, 6, 6, 6] 
c  
p edge 100 300 5
e 1 11
e 1 51
e 1 52
e 1 60
e 1 97
e 1 99
e 2 4
e 2 13
e 2 44
e 2 57
e 2 97
e 2 100
e 3 14
e 3 17
e 3 20
e 3 83
e 3 86
e 3 87
e 4 16
e 4 62
e 4 65
e 4 93
e 4 95
e 5 20
e 5 24
e 5 49
e 5 60
e 5 67
e 5 90
e 6 15
e 6 39
e 6 78
e 6 82
e 6 84
e 6 91
e 7 16
e 7 19
e 7 28
e 7 46
e 7 75
e 7 76
e 8 13
e 8 21
e 8 59
e 8 84
e 8 90
e 8 94
e 9 12
e 9 13
e 9 66
e 9 71
e 9 74
e 9 77
e 10 15
e 10 19
e 10 35
e 10 49
e 10 57
e 10 100
e 11 14
e 11 26
e 11 27
e 11 61
e 11 89
e 12 14
e 12 52
e 12 59
e 12 69
e 12 93
e 13 51
e 13 84
e 13 97
e 14 17
e 14 26
e 14 90
e 15 54
e 15 56
e 15 69
e 15 89
e 16 19
e 16 42
e 16 55
e 16 58
e 17 70
e 17 80
e 17 81
e 17 93
e 18 32
e 18 40
e 18 44
e 18 71
e 18 92
e 18 97
e 19 33
e 19 44
e 19 83
e 20 46
e 20 68
e 20 75
e 20 90
e 21 27
e 21 31
e 21 88
e 21 95
e 21 99
e 22 25
e 22 50
e 22 56
e 22 57
e 22 64
e 22 79
e 23 62
e 23 76
e 23 81
e 23 92
e 23 94
e 23 100
e 24 41
e 24 57
e 24 73
e 24 82
e 24 83
e 25 26
e 25 39
e 25 63
e 25 74
e 25 83
e 26 50
e 26 60
e 26 64
e 27 29
e 27 34
e 27 59
e 27 64
e 28 30
e 28 31
e 28 43
e 28 56
e 28 98
e 29 33
e 29 35
e 29 45
e 29 55
e 29 100
e 30 50
e 30 53
e 30 64
e 30 74
e 30 81
e 31 34
e 31 36
e 31 40
e 31 82
e 32 40
e 32 50
e 32 85
e 32 86
e 32 99
e 33 48
e 33 84
e 33 96
e 33 100
e 34 60
e 34 69
e 34 76
e 34 79
e 35 49
e 35 73
e 35 90
e 35 96
e 36 47
e 36 49
e 36 65
e 36 67
e 36 81
e 37 43
e 37 46
e 37 54
e 37 70
e 37 73
e 37 80
e 38 41
e 38 43
e 38 56
e 38 76
e 38 82
e 38 94
e 39 52
e 39 56
e 39 73
e 39 97
e 40 46
e 40 61
e 40 67
e 41 51
e 41 55
e 41 60
e 41 78
e 42 46
e 42 67
e 42 69
e 42 86
e 42 90
e 43 62
e 43 70
e 43 87
e 44 50
e 44 58
e 44 93
e 45 60
e 45 62
e 45 68
e 45 76
e 45 79
e 46 79
e 47 49
e 47 72
e 47 85
e 47 92
e 47 98
e 48 63
e 48 72
e 48 83
e 48 85
e 48 96
e 49 62
e 50 72
e 51 54
e 51 65
e 51 72
e 52 53
e 52 63
e 52 99
e 53 70
e 53 71
e 53 78
e 53 98
e 54 77
e 54 78
e 54 87
e 55 63
e 55 88
e 55 98
e 56 74
e 57 82
e 57 99
e 58 75
e 58 85
e 58 91
e 58 94
e 59 65
e 59 69
e 59 84
e 61 68
e 61 80
e 61 88
e 61 96
e 62 66
e 63 87
e 63 95
e 64 71
e 64 74
e 65 80
e 65 91
e 66 68
e 66 70
e 66 73
e 66 84
e 67 91
e 67 93
e 68 76
e 68 88
e 69 81
e 70 91
e 71 92
e 71 94
e 72 75
e 72 79
e 73 83
e 74 99
e 75 89
e 75 96
e 77 85
e 77 88
e 77 96
e 77 98
e 78 82
e 78 89
e 79 80
e 80 86
e 81 92
e 85 87
e 86 87
e 86 100
e 88 95
e 89 95
e 89 98
e 91 93
e 92 95
e 94 97
n 1 5
n 3 1
n 4 2
n 6 5
n 7 5
n 8 5
n 9 3
n 15 5
n 18 5
n 19 5
n 22 4
n 23 5
n 24 3
n 25 4
n 26 4
n 27 2
n 28 5
n 29 2
n 30 5
n 31 5
n 38 4
n 44 5
n 45 2
n 46 5
n 48 5
n 49 1
n 51 5
n 52 5
n 54 5
n 55 2
n 58 5
n 66 3
n 67 1
n 69 5
n 70 3
n 72 5
n 73 3
n 75 5
n 78 5
n 80 1
n 81 5
n 85 5
n 86 1
n 88 2
n 89 5
n 90 5
n 92 5
n 96 5
n 97 5
n 99 5
